data/solutions/recovery/degenerate/moderate/flexible/degenerate_moderate_instance36/53.sol
Elapsed time: 3.43
Upper bound: 1410097412.0
Planning weighted value: 39069864313.0
C[0]=1410097412.0
C[1]=1410089402.0
C[2]=1409975344.0
C[3]=1409840856.0
C[4]=0.0
y[0]=2
y[1]=2
y[2]=1
y[3]=1
y[4]=1
y[5]=2
y[6]=3
y[7]=2
y[8]=0
y[9]=1
y[10]=0
y[11]=2
y[12]=2
y[13]=2
y[14]=1
y[15]=1
y[16]=0
y[17]=1
y[18]=1
y[19]=2
y[20]=1
y[21]=0
y[22]=0
y[23]=3
y[24]=1
y[25]=3
y[26]=3
y[27]=1
y[28]=0
y[29]=3
y[30]=3
y[31]=1
y[32]=2
y[33]=3
y[34]=2
y[35]=1
y[36]=0
y[37]=3
y[38]=3
y[39]=1
y[40]=0
y[41]=2
y[42]=3
y[43]=0
y[44]=3
y[45]=0
